data/OOEBPP/R1000/BPP_1000_75_0.2_0.7_5.txt.ins
1000
75 75
1 52 786
2 52 424
3 52 448
4 52 482
5 52 692
6 52 248
7 52 592
8 52 560
9 52 472
10 52 558
11 52 147
12 52 344
13 52 55
14 52 793
15 52 505
16 52 570
17 52 683
18 52 336
19 52 756
20 52 748
21 52 951
22 52 583
23 52 203
24 51 673
25 51 793
26 51 474
27 51 353
28 51 304
29 51 120
30 51 564
31 51 570
32 51 201
33 51 954
34 51 647
35 51 61
36 51 807
37 51 162
38 51 985
39 51 931
40 51 415
41 51 587
42 51 243
43 51 172
44 51 225
45 51 587
46 51 107
47 51 933
48 51 837
49 51 471
50 51 623
51 50 533
52 50 938
53 50 771
54 50 815
55 50 123
56 50 853
57 50 63
58 50 917
59 50 204
60 50 151
61 50 228
62 50 252
63 50 487
64 50 395
65 50 891
66 50 92
67 50 862
68 50 820
69 50 338
70 50 762
71 50 27
72 50 159
73 50 265
74 50 696
75 50 48
76 50 922
77 50 402
78 50 891
79 50 225
80 50 267
81 50 95
82 50 585
83 50 506
84 50 202
85 49 672
86 49 559
87 49 609
88 49 975
89 49 382
90 49 685
91 49 260
92 49 496
93 49 732
94 49 757
95 49 639
96 49 575
97 49 225
98 49 444
99 49 445
100 49 430
101 49 381
102 49 964
103 49 765
104 49 771
105 49 22
106 48 545
107 48 465
108 48 277
109 48 891
110 48 890
111 48 247
112 48 120
113 48 988
114 48 584
115 48 8
116 48 694
117 48 207
118 48 175
119 48 414
120 48 601
121 48 899
122 48 534
123 48 214
124 48 597
125 48 351
126 48 739
127 48 591
128 48 54
129 48 706
130 48 340
131 48 986
132 48 815
133 48 513
134 48 722
135 48 389
136 48 152
137 48 13
138 48 738
139 48 674
140 47 669
141 47 847
142 47 714
143 47 29
144 47 573
145 47 5
146 47 868
147 47 684
148 47 95
149 47 991
150 47 433
151 47 331
152 47 483
153 47 98
154 47 238
155 47 891
156 47 649
157 47 292
158 47 107
159 47 490
160 46 937
161 46 450
162 46 133
163 46 870
164 46 826
165 46 672
166 46 595
167 46 985
168 46 737
169 46 270
170 46 710
171 46 709
172 46 423
173 46 8
174 46 771
175 46 227
176 46 727
177 46 741
178 46 441
179 46 422
180 46 505
181 46 243
182 46 57
183 46 965
184 46 890
185 46 502
186 46 37
187 46 592
188 46 175
189 46 522
190 46 149
191 45 677
192 45 707
193 45 157
194 45 74
195 45 820
196 45 9
197 45 566
198 45 988
199 45 402
200 45 227
201 45 102
202 45 740
203 45 662
204 45 384
205 45 961
206 45 601
207 45 622
208 45 261
209 45 165
210 45 361
211 45 63
212 45 60
213 45 957
214 45 610
215 44 830
216 44 51
217 44 568
218 44 460
219 44 870
220 44 678
221 44 886
222 44 475
223 44 17
224 44 951
225 44 474
226 44 55
227 44 449
228 44 994
229 44 306
230 44 682
231 44 582
232 44 44
233 44 616
234 44 96
235 44 495
236 44 342
237 44 104
238 44 393
239 44 740
240 44 685
241 44 122
242 44 533
243 44 664
244 44 945
245 43 821
246 43 41
247 43 849
248 43 39
249 43 735
250 43 809
251 43 239
252 43 646
253 43 76
254 43 855
255 43 165
256 43 997
257 43 511
258 43 851
259 43 413
260 43 676
261 43 849
262 43 809
263 43 797
264 43 290
265 43 298
266 43 789
267 43 817
268 43 901
269 42 728
270 42 229
271 42 241
272 42 644
273 42 2
274 42 660
275 42 639
276 42 136
277 42 683
278 42 45
279 42 480
280 42 709
281 42 267
282 42 399
283 42 483
284 42 633
285 42 673
286 42 961
287 42 828
288 42 741
289 42 15
290 42 339
291 42 177
292 42 138
293 42 15
294 42 269
295 42 411
296 42 94
297 42 773
298 41 293
299 41 142
300 41 671
301 41 498
302 41 889
303 41 989
304 41 30
305 41 498
306 41 130
307 41 876
308 41 80
309 41 420
310 41 282
311 41 36
312 41 464
313 41 746
314 41 857
315 41 803
316 41 562
317 41 818
318 41 965
319 41 719
320 41 90
321 41 945
322 41 27
323 40 120
324 40 343
325 40 392
326 40 997
327 40 311
328 40 779
329 40 898
330 40 775
331 40 18
332 40 236
333 40 496
334 40 777
335 40 343
336 40 934
337 40 824
338 40 582
339 40 779
340 40 901
341 40 37
342 40 460
343 40 414
344 40 701
345 40 856
346 40 43
347 39 596
348 39 779
349 39 341
350 39 667
351 39 958
352 39 149
353 39 545
354 39 391
355 39 155
356 39 927
357 39 383
358 39 64
359 39 234
360 39 143
361 39 676
362 39 864
363 39 116
364 39 4
365 39 613
366 39 242
367 39 768
368 39 936
369 39 916
370 39 138
371 39 817
372 39 844
373 38 919
374 38 266
375 38 426
376 38 870
377 38 85
378 38 50
379 38 744
380 38 764
381 38 271
382 38 167
383 38 714
384 38 548
385 38 69
386 38 985
387 38 553
388 38 641
389 38 942
390 38 454
391 37 949
392 37 395
393 37 324
394 37 694
395 37 378
396 37 307
397 37 818
398 37 141
399 37 74
400 37 575
401 37 614
402 37 734
403 37 204
404 37 98
405 37 880
406 37 85
407 37 810
408 37 950
409 37 427
410 37 67
411 37 239
412 37 32
413 37 101
414 37 289
415 37 492
416 37 85
417 36 575
418 36 0
419 36 9
420 36 99
421 36 764
422 36 780
423 36 486
424 36 50
425 36 515
426 36 655
427 36 867
428 36 537
429 36 28
430 36 917
431 36 310
432 36 319
433 36 865
434 36 704
435 36 205
436 36 710
437 36 3
438 36 50
439 36 874
440 36 78
441 36 147
442 36 273
443 36 365
444 35 404
445 35 220
446 35 695
447 35 330
448 35 745
449 35 94
450 35 185
451 35 654
452 35 174
453 35 482
454 35 518
455 35 442
456 35 53
457 35 0
458 35 366
459 35 353
460 35 330
461 35 704
462 35 846
463 35 787
464 35 953
465 35 875
466 35 144
467 35 818
468 35 830
469 35 89
470 35 355
471 35 907
472 35 7
473 34 605
474 34 30
475 34 764
476 34 827
477 34 949
478 34 380
479 34 572
480 34 885
481 34 106
482 34 679
483 34 621
484 34 481
485 34 68
486 34 749
487 34 980
488 34 289
489 34 83
490 34 756
491 34 178
492 33 199
493 33 740
494 33 247
495 33 751
496 33 886
497 33 498
498 33 600
499 33 170
500 33 565
501 33 929
502 33 150
503 33 467
504 33 75
505 33 845
506 33 625
507 33 739
508 33 399
509 33 469
510 32 238
511 32 937
512 32 621
513 32 584
514 32 317
515 32 289
516 32 496
517 32 58
518 32 952
519 32 223
520 32 685
521 32 589
522 32 297
523 32 891
524 32 863
525 32 616
526 32 335
527 32 460
528 32 400
529 32 530
530 32 977
531 32 953
532 32 879
533 32 313
534 32 338
535 32 592
536 32 656
537 31 241
538 31 285
539 31 724
540 31 465
541 31 687
542 31 8
543 31 371
544 31 932
545 31 48
546 31 77
547 31 397
548 31 730
549 31 185
550 31 714
551 31 246
552 31 711
553 31 263
554 31 904
555 31 187
556 31 812
557 31 310
558 31 420
559 31 500
560 31 489
561 31 497
562 31 918
563 31 285
564 31 704
565 31 466
566 30 719
567 30 738
568 30 959
569 30 288
570 30 232
571 30 466
572 30 181
573 30 555
574 30 427
575 30 990
576 30 981
577 30 154
578 30 64
579 30 679
580 30 979
581 30 550
582 30 487
583 30 765
584 30 12
585 30 354
586 29 844
587 29 703
588 29 365
589 29 609
590 29 358
591 29 573
592 29 119
593 29 877
594 29 983
595 29 636
596 29 868
597 29 826
598 29 753
599 29 546
600 29 724
601 29 590
602 29 431
603 29 467
604 29 844
605 29 718
606 29 17
607 29 268
608 29 600
609 29 504
610 29 462
611 29 703
612 28 625
613 28 700
614 28 540
615 28 635
616 28 801
617 28 933
618 28 134
619 28 800
620 28 632
621 28 645
622 28 117
623 28 775
624 28 197
625 28 974
626 28 552
627 28 297
628 28 943
629 28 81
630 28 181
631 28 272
632 28 228
633 28 355
634 28 317
635 27 941
636 27 13
637 27 223
638 27 266
639 27 304
640 27 803
641 27 588
642 27 213
643 27 706
644 27 460
645 27 969
646 27 304
647 27 323
648 27 781
649 27 502
650 27 548
651 27 990
652 27 639
653 27 722
654 27 863
655 27 825
656 27 734
657 26 938
658 26 243
659 26 546
660 26 213
661 26 236
662 26 265
663 26 590
664 26 343
665 26 313
666 26 53
667 26 376
668 26 596
669 26 824
670 26 192
671 26 915
672 26 521
673 26 178
674 26 67
675 26 320
676 26 266
677 26 228
678 26 206
679 26 604
680 26 916
681 26 523
682 26 113
683 26 469
684 26 107
685 26 211
686 26 317
687 26 699
688 26 647
689 25 758
690 25 168
691 25 872
692 25 343
693 25 93
694 25 566
695 25 707
696 25 78
697 25 207
698 25 614
699 25 137
700 25 10
701 25 860
702 25 669
703 25 282
704 25 137
705 25 789
706 25 717
707 25 635
708 25 39
709 25 46
710 25 450
711 25 241
712 25 782
713 25 691
714 25 257
715 25 866
716 25 960
717 25 642
718 25 557
719 25 28
720 25 45
721 25 479
722 24 623
723 24 248
724 24 528
725 24 89
726 24 155
727 24 993
728 24 966
729 24 918
730 24 41
731 24 434
732 24 843
733 24 370
734 24 268
735 24 503
736 24 196
737 24 560
738 24 773
739 24 862
740 24 79
741 24 905
742 24 588
743 24 386
744 24 531
745 24 74
746 24 325
747 24 794
748 24 868
749 24 203
750 24 424
751 23 467
752 23 270
753 23 302
754 23 86
755 23 597
756 23 46
757 23 50
758 23 343
759 23 958
760 23 588
761 23 273
762 23 619
763 23 279
764 23 368
765 23 885
766 23 521
767 23 291
768 23 758
769 23 353
770 23 822
771 23 170
772 23 285
773 23 965
774 23 614
775 23 332
776 23 732
777 23 185
778 23 928
779 23 216
780 23 80
781 22 592
782 22 693
783 22 111
784 22 491
785 22 67
786 22 45
787 22 324
788 22 420
789 22 287
790 22 412
791 22 191
792 22 372
793 22 558
794 22 772
795 22 836
796 22 982
797 22 127
798 22 81
799 22 351
800 22 463
801 22 735
802 22 561
803 22 44
804 22 67
805 22 353
806 22 365
807 22 511
808 22 691
809 21 928
810 21 1000
811 21 216
812 21 975
813 21 286
814 21 618
815 21 627
816 21 6
817 21 297
818 21 731
819 21 690
820 21 666
821 21 781
822 21 829
823 21 309
824 21 675
825 21 241
826 21 730
827 21 639
828 21 251
829 21 313
830 21 606
831 21 793
832 21 596
833 21 315
834 21 129
835 21 576
836 21 860
837 21 165
838 21 29
839 21 183
840 21 529
841 21 381
842 21 3
843 21 141
844 21 913
845 20 145
846 20 468
847 20 958
848 20 473
849 20 633
850 20 222
851 20 631
852 20 801
853 20 470
854 20 951
855 20 937
856 20 489
857 20 129
858 20 212
859 20 217
860 20 572
861 20 208
862 20 339
863 20 698
864 20 502
865 20 887
866 20 32
867 20 762
868 20 215
869 20 765
870 20 211
871 20 854
872 20 718
873 20 694
874 19 79
875 19 652
876 19 695
877 19 311
878 19 899
879 19 185
880 19 795
881 19 898
882 19 783
883 19 635
884 19 361
885 19 453
886 19 276
887 19 539
888 19 638
889 19 687
890 19 618
891 19 130
892 19 373
893 19 26
894 19 974
895 19 141
896 19 874
897 18 692
898 18 460
899 18 168
900 18 257
901 18 373
902 18 534
903 18 56
904 18 657
905 18 528
906 18 415
907 18 259
908 18 172
909 18 338
910 18 201
911 18 656
912 18 294
913 18 775
914 18 1
915 18 339
916 18 238
917 18 308
918 18 76
919 18 85
920 18 65
921 18 372
922 18 642
923 18 225
924 17 17
925 17 385
926 17 126
927 17 343
928 17 899
929 17 149
930 17 561
931 17 885
932 17 632
933 17 692
934 17 711
935 17 491
936 17 961
937 17 622
938 17 880
939 17 31
940 17 700
941 17 783
942 17 0
943 17 887
944 17 580
945 17 346
946 16 161
947 16 880
948 16 210
949 16 219
950 16 165
951 16 791
952 16 414
953 16 639
954 16 407
955 16 989
956 16 253
957 16 261
958 16 463
959 16 99
960 16 826
961 16 834
962 16 61
963 16 811
964 16 660
965 16 225
966 16 10
967 16 447
968 16 337
969 16 853
970 16 86
971 16 182
972 16 290
973 16 871
974 16 991
975 16 563
976 16 236
977 15 898
978 15 995
979 15 610
980 15 622
981 15 507
982 15 372
983 15 265
984 15 627
985 15 25
986 15 478
987 15 291
988 15 538
989 15 600
990 15 137
991 15 311
992 15 443
993 15 52
994 15 687
995 15 650
996 15 469
997 15 446
998 15 455
999 15 214
1000 15 326
