results/OOEBPP/BPP_1000_75_0.2_0.7_5.txt.ins.log
275,274.992,21.0991,OPT,10941,0,0,AI,0,0.156364,2.78182,0.661682,20.0052,0,2,0,60,60
